% Logging successfully configured
%%%mzn-stat: initTime=0.003589073
%%%mzn-stat: objective=824
%%%mzn-stat: nodes=154
%%%mzn-stat: restarts=0
%%%mzn-stat: peakDepth=136
%%%mzn-stat: solveTime=0.003765473
%%%mzn-stat: variables=302
%%%mzn-stat: propagators=200
%%%mzn-stat: failures=18
%%%mzn-stat: propagations=1006
%%%mzn-stat: nogoods=18
%%%mzn-stat: numAtomicConstraintsPropagated=0
%%%mzn-stat: circuitNumber1PropagationsTotal=102
%%%mzn-stat: circuitNumber1CircuitConflicts=2
%%%mzn-stat: circuitNumber1AlldiffConflicts=0
%%%mzn-stat: circuitNumber1TotalFixedEdgesAtConflict=30
%%%mzn-stat: circuitNumber1NumberOfConflicts=2
%%%mzn-stat: circuitNumber1GacPrunings=299
%%%mzn-stat: circuitNumber1PropagationsThatGacPruned=59
%%%mzn-stat: circuitNumber1TotalPruningHallSetSize=722
%%%mzn-stat: circuitNumber1NumberOfPruningExplanations=299
%%%mzn-stat: circuitNumber1MaxPruningHallSetSize=12
%%%mzn-stat: circuitNumber1TotalSccSizeAtPruning=345
%%%mzn-stat: circuitNumber1NumberOfSccPruningCalls=59
%%%mzn-stat: circuitNumber1TotalVarsInvolvedInPruning=212
%%%mzn-stat: circuitNumber1MaxValuesPrunedFromSingleVar=4
%%%mzn-stat: circuitNumber1HallCircuitChecks=143
%%%mzn-stat: circuitNumber1HallCircuitPrunings=18
%%%mzn-stat: circuitNumber1CircuitPreventPrunings=52
%%%mzn-stat: AverageConflictSize=13.555555555555555
%%%mzn-stat: NumUnitNogoodsLearned=0
%%%mzn-stat: AverageLearnedNogoodLength=10.722222222222221
%%%mzn-stat: AverageBacktrackAmount=0
%%%mzn-stat: AverageLbd=8.722222222222221
%%%mzn-stat: 2AutonomousSearchNumBackupCalled=126
%%%mzn-stat: 2AutonomousSearchNumPredicatesRemoved=0
%%%mzn-stat: 2AutonomousSearchNumCalls=127
%%%mzn-stat: 2AutonomousSearchNumPredicatesAdded=148
%%%mzn-stat: 2AutonomousSearchAverageSizeOfHeap=1.1653543307086613
%%%mzn-stat: 2AutonomousSearchNumAssignedPredicatesEncountered=148
%%%mzn-stat-end
maxleg = 824;
succ = array1d(1..20,[2, 4, 1, 5, 9, 7, 3, 20, 19, 6, 15, 8, 12, 16, 18, 13, 11, 14, 17, 10]);
% time elapsed: 0.20 s
----------
%%%mzn-stat: initTime=0.003589073
%%%mzn-stat: objective=658
%%%mzn-stat: nodes=317
%%%mzn-stat: restarts=0
%%%mzn-stat: peakDepth=138
%%%mzn-stat: solveTime=0.009084622
%%%mzn-stat: variables=302
%%%mzn-stat: propagators=200
%%%mzn-stat: failures=44
%%%mzn-stat: propagations=1992
%%%mzn-stat: nogoods=44
%%%mzn-stat: numAtomicConstraintsPropagated=0
%%%mzn-stat: circuitNumber1PropagationsTotal=249
%%%mzn-stat: circuitNumber1CircuitConflicts=18
%%%mzn-stat: circuitNumber1AlldiffConflicts=0
%%%mzn-stat: circuitNumber1TotalFixedEdgesAtConflict=320
%%%mzn-stat: circuitNumber1NumberOfConflicts=18
%%%mzn-stat: circuitNumber1GacPrunings=592
%%%mzn-stat: circuitNumber1PropagationsThatGacPruned=139
%%%mzn-stat: circuitNumber1TotalPruningHallSetSize=1518
%%%mzn-stat: circuitNumber1NumberOfPruningExplanations=592
%%%mzn-stat: circuitNumber1MaxPruningHallSetSize=12
%%%mzn-stat: circuitNumber1TotalSccSizeAtPruning=724
%%%mzn-stat: circuitNumber1NumberOfSccPruningCalls=139
%%%mzn-stat: circuitNumber1TotalVarsInvolvedInPruning=419
%%%mzn-stat: circuitNumber1MaxValuesPrunedFromSingleVar=5
%%%mzn-stat: circuitNumber1HallCircuitChecks=286
%%%mzn-stat: circuitNumber1HallCircuitPrunings=26
%%%mzn-stat: circuitNumber1CircuitPreventPrunings=126
%%%mzn-stat: AverageConflictSize=14.727272727272727
%%%mzn-stat: NumUnitNogoodsLearned=0
%%%mzn-stat: AverageLearnedNogoodLength=12.75
%%%mzn-stat: AverageBacktrackAmount=0
%%%mzn-stat: AverageLbd=10.159090909090908
%%%mzn-stat: 2AutonomousSearchNumBackupCalled=250
%%%mzn-stat: 2AutonomousSearchNumPredicatesRemoved=0
%%%mzn-stat: 2AutonomousSearchNumCalls=252
%%%mzn-stat: 2AutonomousSearchNumPredicatesAdded=388
%%%mzn-stat: 2AutonomousSearchAverageSizeOfHeap=1.8095238095238095
%%%mzn-stat: 2AutonomousSearchNumAssignedPredicatesEncountered=456
%%%mzn-stat-end
maxleg = 658;
succ = array1d(1..20,[2, 6, 1, 5, 9, 7, 10, 12, 18, 20, 4, 3, 8, 16, 17, 13, 19, 14, 11, 15]);
% time elapsed: 0.21 s
----------
%%%mzn-stat: initTime=0.003589073
%%%mzn-stat: objective=626
%%%mzn-stat: nodes=452
%%%mzn-stat: restarts=0
%%%mzn-stat: peakDepth=138
%%%mzn-stat: solveTime=0.0099853
%%%mzn-stat: variables=302
%%%mzn-stat: propagators=200
%%%mzn-stat: failures=45
%%%mzn-stat: propagations=2378
%%%mzn-stat: nogoods=45
%%%mzn-stat: numAtomicConstraintsPropagated=0
%%%mzn-stat: circuitNumber1PropagationsTotal=283
%%%mzn-stat: circuitNumber1CircuitConflicts=19
%%%mzn-stat: circuitNumber1AlldiffConflicts=0
%%%mzn-stat: circuitNumber1TotalFixedEdgesAtConflict=337
%%%mzn-stat: circuitNumber1NumberOfConflicts=19
%%%mzn-stat: circuitNumber1GacPrunings=657
%%%mzn-stat: circuitNumber1PropagationsThatGacPruned=155
%%%mzn-stat: circuitNumber1TotalPruningHallSetSize=1617
%%%mzn-stat: circuitNumber1NumberOfPruningExplanations=657
%%%mzn-stat: circuitNumber1MaxPruningHallSetSize=12
%%%mzn-stat: circuitNumber1TotalSccSizeAtPruning=759
%%%mzn-stat: circuitNumber1NumberOfSccPruningCalls=155
%%%mzn-stat: circuitNumber1TotalVarsInvolvedInPruning=478
%%%mzn-stat: circuitNumber1MaxValuesPrunedFromSingleVar=5
%%%mzn-stat: circuitNumber1HallCircuitChecks=324
%%%mzn-stat: circuitNumber1HallCircuitPrunings=30
%%%mzn-stat: circuitNumber1CircuitPreventPrunings=137
%%%mzn-stat: AverageConflictSize=14.444444444444445
%%%mzn-stat: NumUnitNogoodsLearned=0
%%%mzn-stat: AverageLearnedNogoodLength=12.911111111111111
%%%mzn-stat: AverageBacktrackAmount=0
%%%mzn-stat: AverageLbd=10.11111111111111
%%%mzn-stat: 2AutonomousSearchNumBackupCalled=369
%%%mzn-stat: 2AutonomousSearchNumPredicatesRemoved=0
%%%mzn-stat: 2AutonomousSearchNumCalls=372
%%%mzn-stat: 2AutonomousSearchNumPredicatesAdded=439
%%%mzn-stat: 2AutonomousSearchAverageSizeOfHeap=2.0618279569892475
%%%mzn-stat: 2AutonomousSearchNumAssignedPredicatesEncountered=767
%%%mzn-stat-end
maxleg = 626;
succ = array1d(1..20,[2, 6, 1, 5, 9, 7, 10, 12, 18, 20, 4, 13, 3, 8, 17, 14, 19, 16, 11, 15]);
% time elapsed: 0.21 s
----------
%%%mzn-stat: initTime=0.003589073
%%%mzn-stat: objective=546
%%%mzn-stat: nodes=601
%%%mzn-stat: restarts=0
%%%mzn-stat: peakDepth=138
%%%mzn-stat: solveTime=0.014885931
%%%mzn-stat: variables=302
%%%mzn-stat: propagators=200
%%%mzn-stat: failures=71
%%%mzn-stat: propagations=3368
%%%mzn-stat: nogoods=71
%%%mzn-stat: numAtomicConstraintsPropagated=0
%%%mzn-stat: circuitNumber1PropagationsTotal=427
%%%mzn-stat: circuitNumber1CircuitConflicts=35
%%%mzn-stat: circuitNumber1AlldiffConflicts=0
%%%mzn-stat: circuitNumber1TotalFixedEdgesAtConflict=616
%%%mzn-stat: circuitNumber1NumberOfConflicts=35
%%%mzn-stat: circuitNumber1GacPrunings=930
%%%mzn-stat: circuitNumber1PropagationsThatGacPruned=232
%%%mzn-stat: circuitNumber1TotalPruningHallSetSize=2337
%%%mzn-stat: circuitNumber1NumberOfPruningExplanations=930
%%%mzn-stat: circuitNumber1MaxPruningHallSetSize=12
%%%mzn-stat: circuitNumber1TotalSccSizeAtPruning=1107
%%%mzn-stat: circuitNumber1NumberOfSccPruningCalls=232
%%%mzn-stat: circuitNumber1TotalVarsInvolvedInPruning=675
%%%mzn-stat: circuitNumber1MaxValuesPrunedFromSingleVar=5
%%%mzn-stat: circuitNumber1HallCircuitChecks=466
%%%mzn-stat: circuitNumber1HallCircuitPrunings=39
%%%mzn-stat: circuitNumber1CircuitPreventPrunings=202
%%%mzn-stat: AverageConflictSize=14.267605633802816
%%%mzn-stat: NumUnitNogoodsLearned=0
%%%mzn-stat: AverageLearnedNogoodLength=13.830985915492958
%%%mzn-stat: AverageBacktrackAmount=0
%%%mzn-stat: AverageLbd=10.056338028169014
%%%mzn-stat: 2AutonomousSearchNumBackupCalled=478
%%%mzn-stat: 2AutonomousSearchNumPredicatesRemoved=0
%%%mzn-stat: 2AutonomousSearchNumCalls=482
%%%mzn-stat: 2AutonomousSearchNumPredicatesAdded=692
%%%mzn-stat: 2AutonomousSearchAverageSizeOfHeap=2.2551867219917012
%%%mzn-stat: 2AutonomousSearchNumAssignedPredicatesEncountered=1087
%%%mzn-stat-end
maxleg = 546;
succ = array1d(1..20,[2, 6, 7, 5, 9, 10, 1, 12, 18, 20, 4, 13, 3, 8, 17, 14, 19, 16, 11, 15]);
% time elapsed: 0.21 s
----------
%%%mzn-stat: initTime=0.003589073
%%%mzn-stat: objective=513
%%%mzn-stat: nodes=710
%%%mzn-stat: restarts=0
%%%mzn-stat: peakDepth=138
%%%mzn-stat: solveTime=0.015617467
%%%mzn-stat: variables=302
%%%mzn-stat: propagators=200
%%%mzn-stat: failures=71
%%%mzn-stat: propagations=3730
%%%mzn-stat: nogoods=71
%%%mzn-stat: numAtomicConstraintsPropagated=0
%%%mzn-stat: circuitNumber1PropagationsTotal=453
%%%mzn-stat: circuitNumber1CircuitConflicts=35
%%%mzn-stat: circuitNumber1AlldiffConflicts=0
%%%mzn-stat: circuitNumber1TotalFixedEdgesAtConflict=616
%%%mzn-stat: circuitNumber1NumberOfConflicts=35
%%%mzn-stat: circuitNumber1GacPrunings=985
%%%mzn-stat: circuitNumber1PropagationsThatGacPruned=246
%%%mzn-stat: circuitNumber1TotalPruningHallSetSize=2532
%%%mzn-stat: circuitNumber1NumberOfPruningExplanations=985
%%%mzn-stat: circuitNumber1MaxPruningHallSetSize=17
%%%mzn-stat: circuitNumber1TotalSccSizeAtPruning=1196
%%%mzn-stat: circuitNumber1NumberOfSccPruningCalls=246
%%%mzn-stat: circuitNumber1TotalVarsInvolvedInPruning=717
%%%mzn-stat: circuitNumber1MaxValuesPrunedFromSingleVar=6
%%%mzn-stat: circuitNumber1HallCircuitChecks=495
%%%mzn-stat: circuitNumber1HallCircuitPrunings=42
%%%mzn-stat: circuitNumber1CircuitPreventPrunings=214
%%%mzn-stat: AverageConflictSize=14.267605633802816
%%%mzn-stat: NumUnitNogoodsLearned=0
%%%mzn-stat: AverageLearnedNogoodLength=13.830985915492958
%%%mzn-stat: AverageBacktrackAmount=0
%%%mzn-stat: AverageLbd=10.056338028169014
%%%mzn-stat: 2AutonomousSearchNumBackupCalled=576
%%%mzn-stat: 2AutonomousSearchNumPredicatesRemoved=0
%%%mzn-stat: 2AutonomousSearchNumCalls=581
%%%mzn-stat: 2AutonomousSearchNumPredicatesAdded=692
%%%mzn-stat: 2AutonomousSearchAverageSizeOfHeap=2.4216867469879517
%%%mzn-stat: 2AutonomousSearchNumAssignedPredicatesEncountered=1407
%%%mzn-stat-end
maxleg = 513;
succ = array1d(1..20,[2, 6, 7, 5, 9, 10, 1, 12, 18, 20, 4, 14, 3, 16, 17, 13, 19, 8, 11, 15]);
% time elapsed: 0.21 s
----------
==========
% time elapsed: 0.21 s
%%%mzn-stat: initTime=0.003589073
%%%mzn-stat: objective=513
%%%mzn-stat: nodes=710
%%%mzn-stat: restarts=0
%%%mzn-stat: peakDepth=138
%%%mzn-stat: solveTime=0.015735206
%%%mzn-stat: variables=302
%%%mzn-stat: propagators=200
%%%mzn-stat: failures=72
%%%mzn-stat: propagations=3786
%%%mzn-stat: nogoods=72
%%%mzn-stat: numAtomicConstraintsPropagated=0
%%%mzn-stat: circuitNumber1PropagationsTotal=454
%%%mzn-stat: circuitNumber1CircuitConflicts=35
%%%mzn-stat: circuitNumber1AlldiffConflicts=0
%%%mzn-stat: circuitNumber1TotalFixedEdgesAtConflict=616
%%%mzn-stat: circuitNumber1NumberOfConflicts=35
%%%mzn-stat: circuitNumber1GacPrunings=989
%%%mzn-stat: circuitNumber1PropagationsThatGacPruned=247
%%%mzn-stat: circuitNumber1TotalPruningHallSetSize=2572
%%%mzn-stat: circuitNumber1NumberOfPruningExplanations=989
%%%mzn-stat: circuitNumber1MaxPruningHallSetSize=19
%%%mzn-stat: circuitNumber1TotalSccSizeAtPruning=1233
%%%mzn-stat: circuitNumber1NumberOfSccPruningCalls=247
%%%mzn-stat: circuitNumber1TotalVarsInvolvedInPruning=720
%%%mzn-stat: circuitNumber1MaxValuesPrunedFromSingleVar=6
%%%mzn-stat: circuitNumber1HallCircuitChecks=496
%%%mzn-stat: circuitNumber1HallCircuitPrunings=42
%%%mzn-stat: circuitNumber1CircuitPreventPrunings=215
%%%mzn-stat: AverageConflictSize=14.097222222222221
%%%mzn-stat: NumUnitNogoodsLearned=1
%%%mzn-stat: AverageLearnedNogoodLength=13.652777777777779
%%%mzn-stat: AverageBacktrackAmount=0
%%%mzn-stat: AverageLbd=9.930555555555555
%%%mzn-stat: 2AutonomousSearchNumBackupCalled=576
%%%mzn-stat: 2AutonomousSearchNumPredicatesRemoved=0
%%%mzn-stat: 2AutonomousSearchNumCalls=581
%%%mzn-stat: 2AutonomousSearchNumPredicatesAdded=787
%%%mzn-stat: 2AutonomousSearchAverageSizeOfHeap=2.4216867469879517
%%%mzn-stat: 2AutonomousSearchNumAssignedPredicatesEncountered=1407
%%%mzn-stat-end
